136652
0 121 36 73 56 70 50 41 42 44 67 82 8 71 86 87 72 74 66 26 52 123 125 124 27 122 3 9 10 81 13 15 16 94 90 93 104 77 75 83 80 84 85 78 69 64 65 114 57 119 60 115 68 51 76 113 120 117 108 39 98 79 100 99 106 102 101 89 88 96 92 95 58 91 105 97 103 107 31 29 30 111 116 54 109 112 110 118 2 49 25 28 35 1 48 47 43 63 59 33 34 37 38 19 18 62 17 20 53 14 12 11 5 6 4 7 45 32 126 55 24 23 22 21 46 40 61 
